NAME          BLANK   
ROWS
 N  OBJROW
 E  R0000000
 E  R0000001
 E  R0000002
 E  R0000003
 E  R0000004
 E  R0000005
 E  R0000006
 E  R0000007
 E  R0000008
 E  R0000009
 E  R0000010
 E  R0000011
 L  R0000012
 L  R0000013
 L  R0000014
 L  R0000015
 L  R0000016
 L  R0000017
 L  R0000018
 L  R0000019
 L  R0000020
 L  R0000021
 L  R0000022
 L  R0000023
 L  R0000024
 L  R0000025
 L  R0000026
 L  R0000027
 L  R0000028
 L  R0000029
 L  R0000030
 L  R0000031
 L  R0000032
 L  R0000033
 L  R0000034
 L  R0000035
 L  R0000036
 L  R0000037
 L  R0000038
 L  R0000039
 L  R0000040
 L  R0000041
 L  R0000042
 L  R0000043
 L  R0000044
 L  R0000045
 L  R0000046
 L  R0000047
 L  R0000048
 L  R0000049
 L  R0000050
 L  R0000051
 L  R0000052
 L  R0000053
 L  R0000054
 L  R0000055
 L  R0000056
 L  R0000057
 L  R0000058
 L  R0000059
 E  R0000060
 E  R0000061
 E  R0000062
 E  R0000063
 L  R0000064
 L  R0000065
 L  R0000066
 L  R0000067
 L  R0000068
 L  R0000069
 L  R0000070
 L  R0000071
 L  R0000072
 L  R0000073
 L  R0000074
 L  R0000075
 L  R0000076
 L  R0000077
 L  R0000078
 L  R0000079
 L  R0000080
 L  R0000081
 L  R0000082
 L  R0000083
 L  R0000084
 L  R0000085
 L  R0000086
 L  R0000087
 L  R0000088
 L  R0000089
 L  R0000090
 L  R0000091
 L  R0000092
 L  R0000093
 L  R0000094
 L  R0000095
 L  R0000096
 L  R0000097
 L  R0000098
 L  R0000099
 L  R0000100
 L  R0000101
 L  R0000102
 L  R0000103
 L  R0000104
 L  R0000105
 L  R0000106
 L  R0000107
 L  R0000108
 L  R0000109
 L  R0000110
 L  R0000111
 L  R0000112
 L  R0000113
 L  R0000114
 L  R0000115
 L  R0000116
 L  R0000117
 L  R0000118
 L  R0000119
 L  R0000120
 L  R0000121
 L  R0000122
 L  R0000123
 L  R0000124
 L  R0000125
 L  R0000126
 L  R0000127
 L  R0000128
 L  R0000129
COLUMNS
    C0000000  OBJROW    10.            R0000000  1.          
    C0000000  R0000012   -1.           R0000036  1.          
    C0000001  OBJROW    5.             R0000000  1.          
    C0000001  R0000013   -1.           R0000037  1.          
    C0000002  OBJROW    11.            R0000001  1.          
    C0000002  R0000014   -1.           R0000038  1.          
    C0000003  OBJROW    4.             R0000001  1.          
    C0000003  R0000015   -1.           R0000039  1.          
    C0000004  OBJROW    12.            R0000002  1.          
    C0000004  R0000016   -1.           R0000040  1.          
    C0000005  OBJROW    3.             R0000002  1.          
    C0000005  R0000017   -1.           R0000041  1.          
    C0000006  OBJROW    9.             R0000003  1.          
    C0000006  R0000018   -1.           R0000042  1.          
    C0000007  OBJROW    5.             R0000003  1.          
    C0000007  R0000019   -1.           R0000043  1.          
    C0000008  OBJROW    8.             R0000004  1.          
    C0000008  R0000020   -1.           R0000044  1.          
    C0000009  R0000004  1.             R0000021   -1.        
    C0000009  R0000045  1.             R0000060  1.          
    C0000010  OBJROW    8.             R0000005  1.          
    C0000010  R0000022   -1.           R0000046  1.          
    C0000011  OBJROW    6.             R0000005  1.          
    C0000011  R0000023   -1.           R0000047  1.          
    C0000012  OBJROW    5.             R0000006  1.          
    C0000012  R0000024   -1.           R0000048  1.          
    C0000013  OBJROW    4.             R0000006  1.          
    C0000013  R0000025   -1.           R0000049  1.          
    C0000014  OBJROW    7.             R0000007  1.          
    C0000014  R0000026   -1.           R0000050  1.          
    C0000015  OBJROW    6.             R0000007  1.          
    C0000015  R0000027   -1.           R0000051  1.          
    C0000016  OBJROW    9.             R0000008  1.          
    C0000016  R0000028   -1.           R0000052  1.          
    C0000017  OBJROW    8.             R0000008  1.          
    C0000017  R0000029   -1.           R0000053  1.          
    C0000018  OBJROW    10.            R0000009  1.          
    C0000018  R0000030   -1.           R0000054  1.          
    C0000019  OBJROW    11.            R0000009  1.          
    C0000019  R0000031   -1.           R0000055  1.          
    C0000020  OBJROW    8.             R0000010  1.          
    C0000020  R0000032   -1.           R0000056  1.          
    C0000021  OBJROW    10.            R0000010  1.          
    C0000021  R0000033   -1.           R0000057  1.          
    C0000022  OBJROW    8.             R0000011  1.          
    C0000022  R0000034   -1.           R0000058  1.          
    C0000023  OBJROW    12.            R0000011  1.          
    C0000023  R0000035   -1.           R0000059  1.          
    C0000024  OBJROW    500.           R0000012  20000.      
    C0000024  R0000036   -100000.      R0000062  1.          
    C0000024  R0000064  1.             R0000086   -1.        
    C0000025  OBJROW    600.           R0000013  20000.      
    C0000025  R0000037   -50000.       R0000063  1.          
    C0000025  R0000065  1.             R0000087   -1.        
    C0000026  OBJROW    500.           R0000014  20000.      
    C0000026  R0000038   -110000.      R0000064   -1.        
    C0000026  R0000066  1.             R0000088   -1.        
    C0000026  R0000108  1.          
    C0000027  OBJROW    600.           R0000015  20000.      
    C0000027  R0000039   -55000.       R0000065   -1.        
    C0000027  R0000067  1.             R0000089   -1.        
    C0000027  R0000109  1.          
    C0000028  OBJROW    500.           R0000016  20000.      
    C0000028  R0000040   -120000.      R0000066   -1.        
    C0000028  R0000068  1.             R0000090   -1.        
    C0000028  R0000110  1.          
    C0000029  OBJROW    600.           R0000017  20000.      
    C0000029  R0000041   -60000.       R0000067   -1.        
    C0000029  R0000069  1.             R0000091   -1.        
    C0000029  R0000111  1.          
    C0000030  OBJROW    500.           R0000018  20000.      
    C0000030  R0000042   -145000.      R0000068   -1.        
    C0000030  R0000070  1.             R0000092   -1.        
    C0000030  R0000112  1.          
    C0000031  OBJROW    600.           R0000019  20000.      
    C0000031  R0000043   -100000.      R0000069   -1.        
    C0000031  R0000071  1.             R0000093   -1.        
    C0000031  R0000113  1.          
    C0000032  OBJROW    500.           R0000020  20000.      
    C0000032  R0000044   -160000.      R0000070   -1.        
    C0000032  R0000072  1.             R0000094   -1.        
    C0000032  R0000114  1.          
    C0000033  R0000061  1.             R0000071   -1.        
    C0000033  R0000073  1.             R0000095   -1.        
    C0000033  R0000115  1.          
    C0000034  OBJROW    500.           R0000022  20000.      
    C0000034  R0000046   -140000.      R0000072   -1.        
    C0000034  R0000074  1.             R0000096   -1.        
    C0000034  R0000116  1.          
    C0000035  OBJROW    600.           R0000023  20000.      
    C0000035  R0000047   -70000.       R0000073   -1.        
    C0000035  R0000075  1.             R0000097   -1.        
    C0000035  R0000117  1.          
    C0000036  OBJROW    500.           R0000024  20000.      
    C0000036  R0000048   -155000.      R0000074   -1.        
    C0000036  R0000076  1.             R0000098   -1.        
    C0000036  R0000118  1.          
    C0000037  OBJROW    600.           R0000025  20000.      
    C0000037  R0000049   -60000.       R0000075   -1.        
    C0000037  R0000077  1.             R0000099   -1.        
    C0000037  R0000119  1.          
    C0000038  OBJROW    500.           R0000026  20000.      
    C0000038  R0000050   -200000.      R0000076   -1.        
    C0000038  R0000078  1.             R0000100   -1.        
    C0000038  R0000120  1.          
    C0000039  OBJROW    600.           R0000027  20000.      
    C0000039  R0000051   -100000.      R0000077   -1.        
    C0000039  R0000079  1.             R0000101   -1.        
    C0000039  R0000121  1.          
    C0000040  OBJROW    500.           R0000028  20000.      
    C0000040  R0000052   -210000.      R0000078   -1.        
    C0000040  R0000080  1.             R0000102   -1.        
    C0000040  R0000122  1.          
    C0000041  OBJROW    600.           R0000029  20000.      
    C0000041  R0000053   -100000.      R0000079   -1.        
    C0000041  R0000081  1.             R0000103   -1.        
    C0000041  R0000123  1.          
    C0000042  OBJROW    500.           R0000030  20000.      
    C0000042  R0000054   -197000.      R0000080   -1.        
    C0000042  R0000082  1.             R0000104   -1.        
    C0000042  R0000124  1.          
    C0000043  OBJROW    600.           R0000031  20000.      
    C0000043  R0000055   -100000.      R0000081   -1.        
    C0000043  R0000083  1.             R0000105   -1.        
    C0000043  R0000125  1.          
    C0000044  OBJROW    500.           R0000032  20000.      
    C0000044  R0000056   -80000.       R0000082   -1.        
    C0000044  R0000084  1.             R0000106   -1.        
    C0000044  R0000126  1.          
    C0000045  OBJROW    600.           R0000033  20000.      
    C0000045  R0000057   -120000.      R0000083   -1.        
    C0000045  R0000085  1.             R0000107   -1.        
    C0000045  R0000127  1.          
    C0000046  OBJROW    500.           R0000034  20000.      
    C0000046  R0000058   -150000.      R0000084   -1.        
    C0000046  R0000128  1.          
    C0000047  OBJROW    600.           R0000035  20000.      
    C0000047  R0000059   -150000.      R0000085   -1.        
    C0000047  R0000129  1.          
    C0000048  OBJROW    20000.         R0000062   -1.        
    C0000049  OBJROW    400000.        R0000063   -1.        
    C0000050  OBJROW    20000.         R0000064  1.          
    C0000050  R0000086   -1.           R0000108   -1.        
    C0000051  OBJROW    400000.        R0000065  1.          
    C0000051  R0000087   -1.           R0000109   -1.        
    C0000052  OBJROW    20000.         R0000066  1.          
    C0000052  R0000088   -1.           R0000110   -1.        
    C0000053  OBJROW    400000.        R0000067  1.          
    C0000053  R0000089   -1.           R0000111   -1.        
    C0000054  OBJROW    20000.         R0000068  1.          
    C0000054  R0000090   -1.           R0000112   -1.        
    C0000055  OBJROW    400000.        R0000069  1.          
    C0000055  R0000091   -1.           R0000113   -1.        
    C0000056  OBJROW    20000.         R0000070  1.          
    C0000056  R0000092   -1.           R0000114   -1.        
    C0000057  OBJROW    400000.        R0000071  1.          
    C0000057  R0000093   -1.           R0000115   -1.        
    C0000058  OBJROW    20000.         R0000072  1.          
    C0000058  R0000094   -1.           R0000116   -1.        
    C0000059  OBJROW    400000.        R0000073  1.          
    C0000059  R0000095   -1.           R0000117   -1.        
    C0000060  OBJROW    20000.         R0000074  1.          
    C0000060  R0000096   -1.           R0000118   -1.        
    C0000061  OBJROW    400000.        R0000075  1.          
    C0000061  R0000097   -1.           R0000119   -1.        
    C0000062  OBJROW    20000.         R0000076  1.          
    C0000062  R0000098   -1.           R0000120   -1.        
    C0000063  OBJROW    400000.        R0000077  1.          
    C0000063  R0000099   -1.           R0000121   -1.        
    C0000064  OBJROW    20000.         R0000078  1.          
    C0000064  R0000100   -1.           R0000122   -1.        
    C0000065  OBJROW    400000.        R0000079  1.          
    C0000065  R0000101   -1.           R0000123   -1.        
    C0000066  OBJROW    20000.         R0000080  1.          
    C0000066  R0000102   -1.           R0000124   -1.        
    C0000067  OBJROW    400000.        R0000081  1.          
    C0000067  R0000103   -1.           R0000125   -1.        
    C0000068  OBJROW    20000.         R0000082  1.          
    C0000068  R0000104   -1.           R0000126   -1.        
    C0000069  OBJROW    400000.        R0000083  1.          
    C0000069  R0000105   -1.           R0000127   -1.        
    C0000070  OBJROW    20000.         R0000084  1.          
    C0000070  R0000106   -1.           R0000128   -1.        
    C0000071  OBJROW    400000.        R0000085  1.          
    C0000071  R0000107   -1.           R0000129   -1.        
RHS
    RHS       R0000000  120000.        R0000001  100000.     
    RHS       R0000002  130000.        R0000003  130000.     
    RHS       R0000004  140000.        R0000005  130000.     
    RHS       R0000006  150000.        R0000007  170000.     
    RHS       R0000008  200000.        R0000009  190000.     
    RHS       R0000010  140000.        R0000011  100000.     
    RHS       R0000086   -1.           R0000087   -1.        
    RHS       R0000088   -1.           R0000089   -1.        
    RHS       R0000090   -1.           R0000091   -1.        
    RHS       R0000092   -1.           R0000093   -1.        
    RHS       R0000094   -1.           R0000095   -1.        
    RHS       R0000096   -1.           R0000097   -1.        
    RHS       R0000098   -1.           R0000099   -1.        
    RHS       R0000100   -1.           R0000101   -1.        
    RHS       R0000102   -1.           R0000103   -1.        
    RHS       R0000104   -1.           R0000105   -1.        
    RHS       R0000106   -1.           R0000107   -1.        
BOUNDS
 UI BOUND     C0000000  100000.     
 UI BOUND     C0000001  50000.      
 UI BOUND     C0000002  100000.     
 UI BOUND     C0000003  55000.      
 UI BOUND     C0000004  120000.     
 UI BOUND     C0000005  60000.      
 UI BOUND     C0000006  130000.     
 UI BOUND     C0000007  100000.     
 FX BOUND     C0000008  140000.     
 FX BOUND     C0000009  0.0         
 UI BOUND     C0000010         1e+30
 UI BOUND     C0000011         1e+30
 UI BOUND     C0000012         1e+30
 UI BOUND     C0000013         1e+30
 UI BOUND     C0000014         1e+30
 UI BOUND     C0000015         1e+30
 UI BOUND     C0000016         1e+30
 UI BOUND     C0000017         1e+30
 UI BOUND     C0000018         1e+30
 UI BOUND     C0000019         1e+30
 UI BOUND     C0000020         1e+30
 UI BOUND     C0000021         1e+30
 UI BOUND     C0000022         1e+30
 UI BOUND     C0000023         1e+30
 BV BOUND     C0000024  1.          
 BV BOUND     C0000025  1.          
 BV BOUND     C0000026  1.          
 BV BOUND     C0000027  1.          
 BV BOUND     C0000028  1.          
 BV BOUND     C0000029  1.          
 BV BOUND     C0000030  1.          
 BV BOUND     C0000031  1.          
 FX BOUND     C0000032  1.          
 BV BOUND     C0000033  1.          
 FX BOUND     C0000034  1.          
 BV BOUND     C0000035  1.          
 FX BOUND     C0000036  1.          
 BV BOUND     C0000037  1.          
 FX BOUND     C0000038  1.          
 BV BOUND     C0000039  1.          
 FX BOUND     C0000040  1.          
 BV BOUND     C0000041  1.          
 FX BOUND     C0000042  1.          
 BV BOUND     C0000043  1.          
 FX BOUND     C0000044  1.          
 BV BOUND     C0000045  1.          
 FX BOUND     C0000046  1.          
 BV BOUND     C0000047  1.          
 BV BOUND     C0000048  1.          
 BV BOUND     C0000049  1.          
 BV BOUND     C0000050  1.          
 BV BOUND     C0000051  1.          
 BV BOUND     C0000052  1.          
 BV BOUND     C0000053  1.          
 BV BOUND     C0000054  1.          
 BV BOUND     C0000055  1.          
 BV BOUND     C0000056  1.          
 BV BOUND     C0000057  1.          
 FX BOUND     C0000058  0.0         
 BV BOUND     C0000059  1.          
 FX BOUND     C0000060  0.0         
 BV BOUND     C0000061  1.          
 FX BOUND     C0000062  0.0         
 BV BOUND     C0000063  1.          
 FX BOUND     C0000064  0.0         
 BV BOUND     C0000065  1.          
 FX BOUND     C0000066  0.0         
 BV BOUND     C0000067  1.          
 FX BOUND     C0000068  0.0         
 BV BOUND     C0000069  1.          
 FX BOUND     C0000070  0.0         
 BV BOUND     C0000071  1.          
ENDATA
